
******************************************************************************
This program contains Ipopt, a library for large-scale nonlinear optimization.
 Ipopt is released as open source code under the Eclipse Public License (EPL).
         For more information visit https://github.com/coin-or/Ipopt
******************************************************************************

This is Ipopt version 3.14.19, running with linear solver MUMPS 5.8.1.

Number of nonzeros in equality constraint Jacobian...:     4389
Number of nonzeros in inequality constraint Jacobian.:        0
Number of nonzeros in Lagrangian Hessian.............:     1050

Total number of variables............................:     1287
                     variables with only lower bounds:        0
                variables with lower and upper bounds:      457
                     variables with only upper bounds:        0
Total number of equality constraints.................:     1274
Total number of inequality constraints...............:        0
        inequality constraints with only lower bounds:        0
   inequality constraints with lower and upper bounds:        0
        inequality constraints with only upper bounds:        0

iter    objective    inf_pr   inf_du lg(mu)  ||d||  lg(rg) alpha_du alpha_pr  ls
   0  9.8546446e+00 9.71e+01 2.09e-04  -1.0 0.00e+00    -  0.00e+00 0.00e+00   0
   1  9.9038193e+00 2.09e+01 2.97e+01  -1.0 9.68e+01    -  3.18e-02 1.00e+00h  1
   2  9.8832792e+00 6.08e+00 7.11e-02  -1.0 1.80e+01    -  9.67e-01 1.00e+00h  1
   3  9.8647895e+00 5.72e+00 2.42e-02  -1.0 5.19e+00    -  8.23e-01 8.63e-01h  1
   4  9.8617045e+00 9.78e-01 2.26e-03  -1.0 8.97e+00    -  1.00e+00 1.00e+00h  1
   5  9.8618559e+00 1.92e-01 1.24e-04  -1.7 2.14e+00    -  1.00e+00 1.00e+00h  1
   6  9.8619182e+00 4.52e-03 7.03e-06  -2.5 3.11e-01    -  1.00e+00 1.00e+00h  1
   7  9.8612363e+00 2.74e-04 8.65e-03  -3.8 2.69e-01    -  8.31e-01 1.00e+00h  1
   8  9.8527192e+00 2.14e-03 4.08e-03  -3.8 3.45e+00    -  4.41e-01 1.00e+00h  1
   9  9.8513280e+00 7.57e-05 9.77e-05  -3.8 7.43e-01    -  1.00e+00 1.00e+00h  1
iter    objective    inf_pr   inf_du lg(mu)  ||d||  lg(rg) alpha_du alpha_pr  ls
  10  9.8481021e+00 3.57e-04 9.53e-04  -5.7 1.47e+00    -  7.86e-01 1.00e+00h  1
  11  9.8479988e+00 1.58e-04 3.08e-04  -5.7 1.09e-01    -  9.50e-01 5.58e-01h  1
  12  9.8479159e+00 1.64e-05 5.00e-05  -5.7 2.00e-01    -  1.00e+00 8.98e-01f  1
  13  9.8479167e+00 1.25e-05 2.19e-03  -5.7 5.74e-02    -  8.25e-01 2.36e-01f  2
  14  9.8479153e+00 1.93e-10 1.01e-10  -5.7 1.74e-03    -  1.00e+00 1.00e+00h  1
  15  9.8479013e+00 7.10e-09 2.50e-03  -8.6 2.72e-02    -  9.44e-01 4.35e-01h  1
  16  9.8479008e+00 3.02e-09 3.93e-03  -8.6 4.68e-04    -  1.00e+00 5.76e-01h  1
  17  9.8479008e+00 1.87e-14 7.22e-15  -8.6 1.14e-06    -  1.00e+00 1.00e+00f  1

Number of Iterations....: 17

                                   (scaled)                 (unscaled)
Objective...............:   9.8479007832613412e+00    9.8479007832613412e+00
Dual infeasibility......:   7.2164496600635175e-15    7.2164496600635175e-15
Constraint violation....:   1.8651746816428353e-14    1.8651746816428353e-14
Variable bound violation:   0.0000000000000000e+00    0.0000000000000000e+00
Complementarity.........:   2.5315560464369219e-09    2.5315560464369219e-09
Overall NLP error.......:   2.5315560464369219e-09    2.5315560464369219e-09


Number of objective function evaluations             = 19
Number of objective gradient evaluations             = 18
Number of equality constraint evaluations            = 19
Number of inequality constraint evaluations          = 0
Number of equality constraint Jacobian evaluations   = 18
Number of inequality constraint Jacobian evaluations = 0
Number of Lagrangian Hessian evaluations             = 17
Total seconds in IPOPT                               = 0.084

EXIT: Optimal Solution Found.
